48 16 96
48 48 -39
48 38 72
16 16 -39
16 20 34
26 10 26
26 20 66
26 26 -33
20 20 -260
20 38 69
20 10 86
20 13 81
38 10 69
38 38 -31
39 24 64
39 25 47
39 13 5
39 39 -85
24 24 -27
25 25 -16
10 10 -127
13 13 -11
